ObjectiveValue = 3888.8;
flow=[(1,6,5)(5,0,0)(5,1,0)(5,2,0)(5,6,29)(5,8,0)(5,10,0)(5,11,0)(6,0,2)(6,1,2)(6,2,5)(6,5,1)(6,11,46)(6,12,4)(9,5,3)(10,12,3)(11,5,2)(11,6,19)(11,8,1)(12,2,2)(12,5,3)(12,6,5)(12,7,9)(12,8,0)(12,9,0)(12,10,0)(12,11,0)];
